Route #1: 71 62 99 98 89
Route #2: 14 49 6 37 87
Route #3: 80 94 56 21
Route #4: 79 11 85 30
Route #5: 35 46 31
Route #6: 19 97 27
Route #7: 15 22 41 20
Route #8: 58 12 5
Route #9: 4 13 74
Route #10: 1 70 54
Route #11: 75 93
Route #12: 28 42 78 65 25
Route #13: 44 67 88 40
Route #14: 69 16 55 76
Route #15: 24 95 73 53 33 32
Route #16: 17 8
Route #17: 82 60 59
Route #18: 57 72 36 29 43 45 2 7
Route #19: 38 47 26 48 96 64 34
Route #20: 81 51 83
Route #21: 66 84 90 68
Route #22: 23 61 100
Route #23: 92 9 86
Route #24: 52 91 50
Route #25: 18 10 39
Route #26: 63 77 3
Cost 27591.0000
Time 16.0011